c CNF formula generated by generate_input.py
c Number of variables: 25
c Number of clauses: 25
c Clause length: random between 1 and 4
p cnf 25 25
22 3 0
-4 -6 0
-21 0
-15 14 2 -23 0
-8 -19 13 0
-22 0
-12 -23 0
-6 0
1 0
-14 -19 -5 -12 0
6 19 10 0
5 -17 23 -6 0
-17 7 -6 -1 0
4 0
3 -7 19 0
8 0
2 13 -15 -3 0
22 0
5 0
-7 3 -6 -15 0
-1 -6 11 0
8 -2 12 -3 0
-9 1 24 -4 0
2 6 0
22 10 0
